10	5
0	3	2	4	1
1	4	8	9	5	10
2	2	7	10
3	2	9	8
4	1	6
5	1	11
6	1	3
7	1	11
8	1	11
9	1	11
10	1	11
11	0
0	0	0	0	0	0	0
1	4	1	0	0	0	0
2	7	0	0	5	4	2
3	8	3	0	2	0	4
4	10	2	0	0	2	4
5	8	2	3	2	1	1
6	6	4	1	5	5	5
7	2	2	2	5	3	5
8	1	0	1	2	0	5
9	4	4	1	3	3	2
10	7	4	3	3	1	3
11	0	0	0	0	0	0
5	5	5	6	6
